10
1 10
2 6
3 9
4 7
5 9
6 2
7 5
8 9
9 3
31
0 1 7
1 0 7
0 2 56
2 0 56
0 3 81
3 0 81
0 4 29
4 0 29
0 5 53
5 0 53
0 6 2
6 0 2
0 7 92
7 0 92
0 8 10
8 0 10
0 9 62
9 0 62
1 4 13
1 5 56
2 3 98
2 7 9
3 7 47
3 8 8
4 5 83
4 6 69
4 8 88
5 9 81
6 7 44
6 9 95
7 9 64
